c description: Random 3-CNF over 21 variables and 89 clauses
c generator: CNFgen (0.9.2)
c copyright: (C) 2012-2022 Massimo Lauria <massimo.lauria@uniroma1.it>
c url: https://massimolauria.net/cnfgen
c command line: cnfgen --output CNF_4.28/21_bit_89_59.cnf randkcnf 3 21 89
c
p cnf 21 89
-9 11 -20 0
12 13 14 0
-1 -14 16 0
4 -13 -18 0
-1 -10 -15 0
3 10 -16 0
-5 -16 -17 0
7 -8 19 0
-14 16 18 0
6 7 -17 0
-10 -11 -12 0
-5 7 -17 0
-9 -11 12 0
-7 10 -19 0
14 -17 18 0
12 -17 19 0
-3 -12 15 0
3 -4 7 0
2 -8 17 0
-7 -16 20 0
-5 15 -17 0
-3 7 12 0
-3 9 15 0
-6 -14 18 0
-14 15 -21 0
-3 -4 16 0
-10 -11 16 0
-5 -7 20 0
-5 6 -11 0
-6 14 -17 0
2 3 19 0
3 12 -13 0
-2 -13 20 0
-3 -6 -15 0
-2 9 13 0
5 7 17 0
6 11 18 0
8 9 -20 0
-12 13 -17 0
3 -12 19 0
6 -10 11 0
10 15 19 0
2 -9 -14 0
-1 -4 -7 0
-4 -10 20 0
-2 -13 18 0
-6 -9 -12 0
7 20 21 0
9 17 18 0
-5 -6 -19 0
9 15 20 0
6 20 -21 0
-5 6 -15 0
2 -16 -18 0
1 5 -12 0
2 11 13 0
10 -14 16 0
1 -9 16 0
4 -18 -19 0
-4 -15 -19 0
-4 10 -12 0
10 15 -18 0
4 12 18 0
2 -8 -9 0
3 -16 -19 0
6 -9 10 0
-9 12 -21 0
-3 -16 19 0
6 -9 12 0
5 10 17 0
-7 8 -14 0
-2 -7 9 0
-1 14 17 0
8 -12 19 0
-6 -13 15 0
6 -17 20 0
5 -15 -21 0
-3 15 -17 0
-3 -4 20 0
1 16 -21 0
-1 -4 8 0
-11 12 -17 0
-11 12 15 0
8 9 -16 0
-14 16 -20 0
3 9 -12 0
-13 20 21 0
7 -18 -19 0
3 -17 -19 0
